c 
p cnf 113 190
-15 -5 21 0
-21 7 14 0
3 -19 22 0
3 -19 -22 0
3 23 24 0
3 23 -24 0
3 -23 24 0
3 -23 -24 0
9 -1 25 0
-25 -15 26 0
-26 -6 -12 0
18 -20 -10 0
3 4 27 0
3 4 -27 0
-5 -6 -17 0
11 -13 28 0
-28 -15 29 0
-29 -14 2 0
8 -13 30 0
-30 -14 -6 0
6 31 32 0
6 31 -32 0
6 -31 32 0
6 -31 -32 0
-11 -18 33 0
-33 19 -5 0
-7 -15 -9 0
10 34 35 0
10 34 -35 0
10 -34 35 0
10 -34 -35 0
-4 14 -17 0
14 8 36 0
-36 -15 37 0
-37 -1 -12 0
7 6 38 0
7 6 -38 0
9 39 40 0
9 39 -40 0
9 -39 40 0
9 -39 -40 0
-15 -5 41 0
-41 -6 -3 0
20 -5 42 0
20 -5 -42 0
-20 1 43 0
-43 -15 9 0
13 -16 44 0
13 -16 -44 0
4 45 46 0
4 45 -46 0
4 -45 46 0
4 -45 -46 0
9 47 48 0
9 47 -48 0
9 -47 48 0
9 -47 -48 0
9 -11 49 0
-49 2 -16 0
-10 -14 4 0
2 -11 50 0
-50 18 51 0
-51 -14 -17 0
4 10 52 0
-52 -13 6 0
18 13 53 0
-53 -9 -15 0
-16 54 55 0
-16 54 -55 0
-16 -54 55 0
-16 -54 -55 0
2 -1 56 0
2 -1 -56 0
-14 8 57 0
-57 4 58 0
-58 -11 -1 0
18 -15 59 0
-59 -16 -14 0
13 60 61 0
13 60 -61 0
13 -60 61 0
13 -60 -61 0
-20 5 62 0
-62 -17 63 0
-63 -2 -9 0
16 -11 64 0
16 -11 -64 0
-2 -14 65 0
-2 -14 -65 0
14 66 67 0
14 66 -67 0
14 -66 67 0
14 -66 -67 0
-1 17 68 0
-1 17 -68 0
-16 -9 69 0
-16 -9 -69 0
10 -6 70 0
-70 -1 71 0
-71 -16 -18 0
-18 -1 -2 0
6 7 72 0
6 7 -72 0
-16 5 73 0
-73 -6 74 0
-74 -18 -20 0
16 19 75 0
16 19 -75 0
-15 -19 -18 0
19 -10 76 0
-76 3 77 0
-77 -18 20 0
-4 -14 2 0
-3 20 78 0
-3 20 -78 0
-3 12 79 0
-79 13 80 0
-80 11 1 0
-1 -18 81 0
-1 -18 -81 0
-20 82 83 0
-20 82 -83 0
-20 -82 83 0
-20 -82 -83 0
-3 17 84 0
-84 -2 85 0
-85 -1 13 0
16 14 19 0
-15 -20 86 0
-86 3 19 0
20 87 88 0
20 87 -88 0
20 -87 88 0
20 -87 -88 0
-6 -13 89 0
-89 -4 90 0
-90 15 -3 0
4 91 92 0
4 91 -92 0
4 -91 92 0
4 -91 -92 0
3 17 93 0
-93 20 -6 0
20 18 94 0
-94 4 -12 0
-9 -19 95 0
-95 -12 10 0
13 96 97 0
13 96 -97 0
13 -96 97 0
13 -96 -97 0
-6 -4 98 0
-6 -4 -98 0
15 5 99 0
15 5 -99 0
-11 -4 100 0
-100 9 -13 0
-6 -4 101 0
-101 -2 -10 0
-5 15 14 0
3 102 103 0
3 102 -103 0
3 -102 103 0
3 -102 -103 0
11 -4 -7 0
2 3 7 0
14 -5 10 0
15 -4 104 0
15 -4 -104 0
-4 -15 105 0
-4 -15 -105 0
15 19 13 0
16 106 107 0
16 106 -107 0
16 -106 107 0
16 -106 -107 0
-19 -18 8 0
1 -12 19 0
-1 17 -6 0
9 108 109 0
9 108 -109 0
9 -108 109 0
9 -108 -109 0
-8 110 111 0
-8 110 -111 0
-8 -110 111 0
-8 -110 -111 0
-7 9 112 0
-112 4 113 0
-113 16 -11 0
